(declare-fun v4 () (_ BitVec 12))
(declare-fun v7 () (_ BitVec 15))
(declare-fun v17 () (_ BitVec 10))
(declare-fun v19 () (_ BitVec 9))
(assert
(let (($e1 (_ bv0 1)))
(let (($e10 (_ bv68 10)))
(let (($e13 (_ bv34 8)))
(let (($e18 (_ bv0 9)))
(let (($e21 (_ bv0 2)))
(let (($e29 (_ bv7 3)))
(let (($e258                    $e29      ))
(let (($e259 (concat $e258 v4)))
(let (($e260      (= $e259 v7)         ))
(let (($e261                   $e260  ))
(let (($e262             $e261          ))
(let (($e403 (concat $e21 $e13)))
(let (($e404 (bvand        $e403         v17 )))
(let (($e405 (concat $e18 $e262)))
(let (($e406 (bvand $e405 $e404)))
(let (($e407 (concat $e1 v19)))
(let (($e408      (= $e407 $e10)         ))
(let (($e409            $e408 ))
(let (($e410             $e409          ))
(let (($e411                  $e410 ))
(let (($e412             $e411          ))
(let (($e413            $e412 ))
             (ite        $e413  $e406 $e404)
                                                                                                                                                                                                                                                                                                                                                                                                                                                                                                                                                                                                                                                                                                                                                                                                                                                                                                                                                                                                                                                                                                                                                                                                                                                                                                                                                                                                                                                                                                                                                                                                                                                                                                                                                                                                                                                                                                                                                                                                                                                                                                                                                                                                                                                                                                                                                                                                                                                                                                                                                                                                                                                                                                                                                                                                                                                                                                                                                                                                                                                                                                                                                                                                                                                                                                                                                                                                                                                                                                                                                                                                                                                                                                                                                                                                                                                                                                                                                                                                                                                                                                                                                                                                                                                                                                                                                                                                                                                                                                                                                                                                                                                                                                                                                                                                                                                                                                                                                                                                                                                                                                                                                                                                                                                                                                                                                                                                                                                                                                                                                                                                                                                                                                                                                                                                                                                                                                                                                                                                                                                                                                                                                                                                                                                                                                                                                                                                                                                                                                                                                                                                                                                                                                                                                                                                                                                                                                                                                                                                                                                                                                                                                                      )))))))))))                                                                                                                                            )))))                                                                                                                                                                                                          )       )  )    )  )        ))
